CMD:
./solvers/bin/cadical --plain --no-reduce -t 1600 ./data/cnfs//picorv32_mutAX_nomem-p2/picorv32_mutAX_nomem-p2.36.cnf

c --- [ banner ] -------------------------------------------------------------
c 
c CaDiCaL SAT Solver
c Copyright (c) 2016-2024
c A. Biere, M. Fleury, N. Froleyks, K. Fazekas, F. Pollitt, T. Faller
c JKU Linz, University of Freiburg, TU Wien
c 
c Version 2.1.3 5296d3d2a9bf48c154ab2acb5e44625776d821bf
c g++ (Gentoo 12.3.1_p20230526 p2) 12.3.1 20230526 -Wall -Wextra -O3 -DNDEBUG
c Sat Aug 9 07:26:21 PDT 2025 Linux cedar2.int.cedar.computecanada.ca 5.14.0-362.24.2.el9_3.x86_64 x86_64
c 
c --- [ limit ] --------------------------------------------------------------
c 
c setting time limit to 1600 seconds real time (due to '-t 1600')
c 
c --- [ parsing input ] ------------------------------------------------------
c 
c reading DIMACS file from './data/cnfs//picorv32_mutAX_nomem-p2/picorv32_mutAX_nomem-p2.36.cnf'
c opening file to read './data/cnfs//picorv32_mutAX_nomem-p2/picorv32_mutAX_nomem-p2.36.cnf'
c found 'p cnf 2032635 6006520' header
c parsed 6006520 clauses in 1.19 seconds process time
c 
c --- [ options ] ------------------------------------------------------------
c 
c   --compact=false                (different from default 'true')
c   --decompose=false              (different from default 'true')
c   --deduplicate=false            (different from default 'true')
c   --elim=false                   (different from default 'true')
c   --probe=false                  (different from default 'true')
c   --reduce=false                 (different from default 'true')
c   --subsume=false                (different from default 'true')
c   --ternary=false                (different from default 'true')
c   --transred=false               (different from default 'true')
c   --vivify=false                 (different from default 'true')
c 
c --- [ solving ] ------------------------------------------------------------
c 
c time measured in process time since initialization
c 
c  seconds   reductions  redundant   irredundant
c          MB    restarts       trail         variables
c           level   conflicts       glue            remaining
c 
c *  1.19 906  0 0   0    0    0  0% 0 5772132 1869775 92%
c {  1.52 924  0 0   0    0    0  0% 0 5772132 1869775 92%
c i  1.58 925 488 0   0   29   27 10% 1 5772132 1856350 91%
c i  1.65 925 451 0   1   50   46 11% 2 5772132 1841877 91%
c i  1.65 925 442 0   1   51   46 11% 2 5772132 1828405 90%
c i  1.66 925 336 0   1   69   60 11% 2 5772132 1828375 90%
c i  1.67 925 331 0   1   70   60 11% 2 5772132 1828362 90%
c i  1.73 926 232 0   7  101   87 11% 2 5772132 1828347 90%
c i  2.01 928 177 0  26  248  198 14% 3 5772132 1828346 90%
c i  2.10 929 149 0  26  343  280 15% 3 5772132 1828242 90%
c i  2.17 929 124 0  28  501  422 14% 3 5772132 1828241 90%
c i  2.17 929 124 0  28  502  422 14% 3 5772132 1828231 90%
c i  2.18 929 122 0  28  520  437 14% 3 5772132 1828225 90%
c i  2.22 929 119 0  28  542  455 14% 3 5772132 1828223 90%
c i  2.22 929 119 0  28  544  456 14% 3 5772132 1827917 90%
c i  2.86 930 85 0  63  883  733 14% 3 5772132 1827916 90%
c }  3.22 931 80 0  64 1000  846 15% 3 5772132 1827916 90%
c [  3.22 931  0 0  64 1000  846  0% 0 5772132 1827916 90%
c O  4.32 933 21059 0  64 1002  848 76% 3 5772132 1827916 90%
c i  4.80 933 24126 0  64 1173  985 91% 7 5772132 1827797 90%
c 
c  seconds      reductions  redundant   irredundant
c          MB       restarts       trail         variables
c             level    conflicts       glue            remaining
c 
c i  4.89 933 24016 0  64 1206 1013 91% 6 5772132 1827764 90%
c i  4.97 933 23945 0  64 1233 1036 91% 6 5772132 1827613 90%
c i  6.48 934 23189 0  64 1570 1304 89% 8 5772132 1827612 90%
c ] 14.73 937 20958 0  65 3006 2159 87% 11 5772132 1827612 90%
c { 14.73 937 80 0  65 3006 2159 15% 3 5772132 1827612 90%
c F 14.84 937 80 0  65 3007 2160 15% 3 5772132 1827612 90%
c i 15.03 938 84 0  66 3204 2332 16% 3 5772132 1827395 90%
c i 15.05 938 84 0  66 3214 2341 16% 3 5772132 1827394 90%
c i 15.19 938 84 0  71 3363 2483 16% 3 5772132 1827380 90%
c i 15.21 938 80 0  71 3479 2585 16% 3 5772132 1827379 90%
c i 15.27 938 79 0  78 3513 2616 15% 3 5772132 1827378 90%
c i 15.27 938 79 0  78 3514 2616 15% 3 5772132 1827371 90%
c i 15.27 938 79 0  78 3517 2618 15% 3 5772132 1827370 90%
c i 15.28 938 79 0  78 3518 2618 15% 3 5772132 1827367 90%
c i 15.28 938 79 0  78 3520 2618 16% 3 5772132 1827360 90%
c i 15.31 938 79 0  78 3544 2639 15% 3 5772132 1827299 90%
c i 15.71 938 73 0  91 3779 2858 15% 3 5772132 1827239 90%
c i 16.21 939 72 0 119 3918 2986 15% 3 5772132 1827237 90%
c i 16.24 939 70 0 131 3964 3027 15% 3 5772132 1827086 90%
c i 16.27 939 69 0 146 4022 3082 15% 3 5772132 1827085 90%
c 
c  seconds   reductions  redundant   irredundant
c          MB    restarts       trail         variables
c           level   conflicts       glue            remaining
c 
c i 16.31 939 69 0 155 4057 3116 15% 3 5772132 1827084 90%
c i 16.39 939 68 0 176 4137 3190 15% 3 5772132 1827083 90%
c i 16.48 939 65 0 213 4278 3319 15% 3 5772132 1827082 90%
c i 16.56 939 63 0 225 4344 3377 15% 3 5772132 1812976 89%
... skipped 225918 lines ...
v -2032210 2032211 -2032212 -2032213 2032214 -2032215 2032216 2032217 -2032218
v -2032219 2032220 -2032221 -2032222 -2032223 2032224 -2032225 -2032226
v 2032227 -2032228 2032229 2032230 -2032231 -2032232 2032233 -2032234 -2032235
v -2032236 2032237 -2032238 -2032239 2032240 2032241 2032242 -2032243 -2032244
v 2032245 -2032246 -2032247 -2032248 2032249 -2032250 -2032251 2032252 2032253
v 2032254 -2032255 -2032256 2032257 -2032258 -2032259 -2032260 2032261
v -2032262 -2032263 2032264 2032265 2032266 -2032267 -2032268 2032269 -2032270
v -2032271 -2032272 2032273 -2032274 -2032275 2032276 2032277 2032278 -2032279
v -2032280 2032281 -2032282 -2032283 -2032284 2032285 -2032286 -2032287
v 2032288 2032289 2032290 -2032291 -2032292 2032293 -2032294 -2032295 -2032296
v 2032297 -2032298 -2032299 2032300 2032301 2032302 -2032303 -2032304 2032305
v -2032306 -2032307 -2032308 2032309 -2032310 -2032311 2032312 2032313 2032314
v -2032315 -2032316 2032317 -2032318 -2032319 -2032320 2032321 -2032322
v -2032323 2032324 2032325 2032326 -2032327 -2032328 2032329 -2032330 -2032331
v -2032332 2032333 -2032334 2032335 2032336 2032337 -2032338 -2032339 2032340
v -2032341 -2032342 -2032343 2032344 -2032345 2032346 2032347 2032348 -2032349
v -2032350 2032351 -2032352 -2032353 -2032354 2032355 -2032356 2032357 2032358
v 2032359 -2032360 -2032361 2032362 -2032363 -2032364 -2032365 2032366
v -2032367 2032368 2032369 2032370 -2032371 -2032372 2032373 -2032374 -2032375
v -2032376 2032377 -2032378 2032379 2032380 2032381 -2032382 -2032383 2032384
v -2032385 -2032386 -2032387 2032388 -2032389 2032390 2032391 2032392 -2032393
v -2032394 2032395 -2032396 -2032397 -2032398 2032399 -2032400 2032401 2032402
v 2032403 -2032404 -2032405 2032406 -2032407 -2032408 -2032409 2032410
v -2032411 2032412 2032413 2032414 -2032415 -2032416 2032417 -2032418 -2032419
v -2032420 2032421 -2032422 2032423 2032424 2032425 -2032426 -2032427 2032428
v -2032429 -2032430 -2032431 2032432 -2032433 2032434 2032435 2032436 -2032437
v -2032438 2032439 -2032440 -2032441 -2032442 2032443 -2032444 2032445 2032446
v 2032447 -2032448 -2032449 2032450 -2032451 -2032452 -2032453 2032454
v -2032455 2032456 2032457 2032458 -2032459 -2032460 2032461 -2032462 -2032463
v -2032464 2032465 -2032466 2032467 2032468 2032469 -2032470 -2032471 2032472
v -2032473 -2032474 -2032475 2032476 -2032477 2032478 2032479 2032480 -2032481
v -2032482 2032483 -2032484 -2032485 -2032486 2032487 -2032488 2032489 2032490
v 2032491 -2032492 -2032493 2032494 -2032495 -2032496 -2032497 2032498
v -2032499 2032500 2032501 -2032502 -2032503 2032504 -2032505 2032506 -2032507
v -2032508 -2032509 -2032510 2032511 -2032512 -2032513 2032514 -2032515
v -2032516 2032517 -2032518 -2032519 2032520 -2032521 -2032522 2032523
v -2032524 -2032525 2032526 -2032527 -2032528 2032529 -2032530 -2032531
v 2032532 -2032533 -2032534 2032535 -2032536 -2032537 2032538 -2032539
v -2032540 2032541 -2032542 -2032543 2032544 -2032545 -2032546 2032547
v -2032548 -2032549 2032550 -2032551 -2032552 2032553 -2032554 -2032555
v 2032556 -2032557 -2032558 2032559 -2032560 -2032561 2032562 -2032563
v -2032564 2032565 -2032566 -2032567 2032568 -2032569 -2032570 2032571
v -2032572 -2032573 2032574 -2032575 -2032576 2032577 -2032578 -2032579
v 2032580 -2032581 -2032582 2032583 -2032584 -2032585 2032586 -2032587
v -2032588 2032589 -2032590 -2032591 2032592 -2032593 -2032594 2032595
v -2032596 -2032597 2032598 -2032599 -2032600 2032601 -2032602 -2032603
v -2032604 -2032605 2032606 -2032607 -2032608 -2032609 -2032610 2032611
v -2032612 2032613 -2032614 -2032615 -2032616 2032617 -2032618 2032619
v -2032620 -2032621 2032622 -2032623 -2032624 -2032625 -2032626 2032627
v -2032628 -2032629 -2032630 -2032631 2032632 -2032633 2032634 -2032635 0
c 
c --- [ run-time profiling ] -------------------------------------------------
c 
c process time taken by individual solving procedures
c (percentage relative to process time for solving)
c 
c       412.89  100.00% search
c       214.41   51.93% unstable
c       190.55   46.15% stable
c         7.61    1.84% walk
c         1.19    0.29% parse
c         0.33    0.08% lucky
c         0.00    0.00% simplify
c   =================================
c       412.89   99.69% solve
c 
c last line shows process time for solving
c (percentage relative to total process time)
c 
c --- [ statistics ] ---------------------------------------------------------
c 
c chronological:             44101        43.22 %  of conflicts
c conflicts:                102050       247.16    per second
c decisions:               1190070      2882.29    per second
c fixed:                    224974        11.07 %  of all variables
c learned:                   93590        91.71 %  per conflict
c learned_lits:           12024384       100.00 %  learned literals
c minimized:                     0         0.00 %  learned literals
c shrunken:                1312030        10.91 %  learned literals
c minishrunken:            2397406        19.94 %  learned literals
c otfs:                        646         0.63 %  of conflict
c propagations:         3191498547         7.73 M  per second
c rephased:                     13      7850.00    interval
c restarts:                   5243        19.46    interval
c stabilizing:                   3        41.17 %  of conflicts
c subsumed:                   3409         0.06 %  of all clauses
c strengthened:                630         0.01 %  of all clauses
c walked:                        3     34016.67    interval
c 
c seconds are measured in process time for solving
c 
c --- [ resources ] ----------------------------------------------------------
c 
c total process time since initialization:       414.19    seconds
c total real time since initialization:          416.66    seconds
c maximum resident set size of process:         1336.04    MB
c 
c --- [ shutting down ] ------------------------------------------------------
c 
c exit 10
